Please solve the following SAT Problem encoded in DIMACS format, only return a single solution assignment without explanations, if there is any: 
p cnf 5 12
-3 5 -1 0
4 5 -1 0
5 2 -1 0
5 -4 -3 0
-1 2 5 0
5 2 -4 0
-1 2 -4 0
3 -1 2 0
-1 -3 -2 0
-1 -3 -4 0
-1 5 2 0
-4 -3 5 0

